c Read 704 clauses.  264 variables
c Breaking ties randomly with seed 1
c Placed 704 terms into 120 buckets.
c Bucket 6 Reduced to term with 7 nodes
c Bucket 12 Reduced to term with 7 nodes
c Bucket 18 Reduced to term with 11 nodes
c Bucket 24 Reduced to term with 9 nodes
c Bucket 30 Reduced to term with 13 nodes
c Bucket 36 Reduced to term with 7 nodes
c Bucket 42 Reduced to term with 7 nodes
c Bucket 48 Reduced to term with 7 nodes
c Bucket 54 Reduced to term with 17 nodes
c Bucket 60 Reduced to term with 23 nodes
c Bucket 66 Reduced to term with 7 nodes
c Bucket 72 Reduced to term with 9 nodes
c Bucket 78 Reduced to term with 7 nodes
c Bucket 84 Reduced to term with 53 nodes
c Bucket 90 Reduced to term with 9 nodes
c Bucket 96 Reduced to term with 9 nodes
c Bucket 102 Reduced to term with 65 nodes
c Bucket 108 Reduced to term with 15 nodes
c Bucket 114 Reduced to term with 17 nodes
c Bucket 120 Reduced to term with 19 nodes
c Bucket 126 Reduced to term with 79 nodes
c Bucket 132 Reduced to term with 83 nodes
c Bucket 138 Reduced to term with 29 nodes
c Bucket 144 Reduced to term with 31 nodes
c Bucket 162 Reduced to term with 99 nodes
c Bucket 198 Reduced to term with 47 nodes
s UNSATISFIABLE

c Cache statistics
c ----------------
c Unique Access:  17537
c Unique Chain:   493
c Unique Hit:     3545
c Unique Miss:    13685
c => Hit rate =   0.21
c Operator Hits:  16879
c Operator Miss:  22069
c => Hit rate =   0.43
c Swap count =    0

c BDD statistics
c ----------------
c Total BDD nodes produced: 13685
c Input variables: 264
c Input clauses: 704
c Total clauses: 84178
c Unused+non-BDD clause IDs: 3317 (3.9%)
c Maximum live clauses: 62868
c Deleted clauses: 83474
c Final live clauses: 704
c Total variables: 13947
c Elapsed seconds: 0.062
-rw-r--r--  1 bryant  staff  3449008 Mar 10 23:07 chew-90-123456.lrat
c parsed a formula with 264 variables and 704 clauses
c VERIFIED
c allocated 1024 274015 2640
c Added clauses = 84178.  Deleted clauses = 21312.  Max live clauses = 62868
c verification time = 0.05 secs
